
Gurobi 9.5.0 (win64) logging started Tue Dec  7 01:37:22 2021

Set parameter LogFile to value "../results/logs/log_2021_12_07_01_36.csv_11_81.log"
Set parameter Method to value 3
Gurobi Optimizer version 9.5.0 build v9.5.0rc5 (win64)
Thread count: 6 physical cores, 12 logical processors, using up to 12 threads
Optimize a model with 6334 rows, 8078 columns and 360309 nonzeros
Model fingerprint: 0xe84d5752
Variable types: 4039 continuous, 4039 integer (4039 binary)
Coefficient statistics:
  Matrix range     [1e+00, 1e+01]
  Objective range  [1e+00, 1e+00]
  Bounds range     [1e+00, 1e+00]
  RHS range        [1e+00, 8e+01]
Found heuristic solution: objective 2904.0000000
Presolve removed 6089 rows and 7747 columns
Presolve time: 0.05s
Presolved: 245 rows, 331 columns, 2186 nonzeros
Variable types: 160 continuous, 171 integer (158 binary)
Found heuristic solution: objective 2951.0000000

Root relaxation: objective 3.050072e+03, 260 iterations, 0.00 seconds (0.00 work units)

    Nodes    |    Current Node    |     Objective Bounds      |     Work
 Expl Unexpl |  Obj  Depth IntInf | Incumbent    BestBd   Gap | It/Node Time

     0     0 3050.07204    0   61 2951.00000 3050.07204  3.36%     -    0s
H    0     0                    3010.0000000 3050.07204  1.33%     -    0s
H    0     0                    3012.0000000 3050.07204  1.26%     -    0s
H    0     0                    3015.0000000 3050.07204  1.16%     -    0s
     0     0 3036.83320    0   40 3015.00000 3036.83320  0.72%     -    0s
H    0     0                    3016.0000000 3036.83320  0.69%     -    0s
H    0     0                    3024.0000000 3036.83320  0.42%     -    0s
     0     0 3036.52906    0   46 3024.00000 3036.52906  0.41%     -    0s
     0     0 3036.46274    0   43 3024.00000 3036.46274  0.41%     -    0s
     0     0 3034.22535    0   44 3024.00000 3034.22535  0.34%     -    0s
H    0     0                    3025.0000000 3034.22535  0.30%     -    0s
H    0     0                    3027.0000000 3033.97763  0.23%     -    0s
     0     0 3033.97763    0   28 3027.00000 3033.97763  0.23%     -    0s
     0     0 3033.86417    0   26 3027.00000 3033.86417  0.23%     -    0s
     0     0 3033.83998    0   27 3027.00000 3033.83998  0.23%     -    0s
     0     0 3033.82610    0   27 3027.00000 3033.82610  0.23%     -    0s
H    0     0                    3028.0000000 3033.29037  0.17%     -    0s
     0     0 3033.29037    0   40 3028.00000 3033.29037  0.17%     -    0s
     0     0 3033.02600    0   31 3028.00000 3033.02600  0.17%     -    0s
     0     0 3033.00278    0   30 3028.00000 3033.00278  0.17%     -    0s
     0     0 3032.97438    0   33 3028.00000 3032.97438  0.16%     -    0s
     0     0 3032.97351    0   33 3028.00000 3032.97351  0.16%     -    0s
H    0     0                    3030.0000000 3032.97351  0.10%     -    0s
     0     0 3032.79011    0   31 3030.00000 3032.79011  0.09%     -    0s
     0     0 3032.63333    0   26 3030.00000 3032.63333  0.09%     -    0s
     0     0 3032.58180    0   28 3030.00000 3032.58180  0.09%     -    0s
     0     0 3032.54964    0   29 3030.00000 3032.54964  0.08%     -    0s
     0     0 3032.42884    0   24 3030.00000 3032.42884  0.08%     -    0s
     0     0 3032.33046    0   35 3030.00000 3032.33046  0.08%     -    0s
     0     0 3032.31681    0   36 3030.00000 3032.31681  0.08%     -    0s
     0     0 3032.27637    0   28 3030.00000 3032.27637  0.08%     -    0s
     0     0 3032.27627    0   27 3030.00000 3032.27627  0.08%     -    0s
     0     0 3032.27627    0   27 3030.00000 3032.27627  0.08%     -    0s
     0     0 3032.27627    0   49 3030.00000 3032.27627  0.08%     -    0s
     0     0 3032.27627    0   38 3030.00000 3032.27627  0.08%     -    0s
     0     0 3032.27627    0   36 3030.00000 3032.27627  0.08%     -    0s
     0     0 3032.27627    0   26 3030.00000 3032.27627  0.08%     -    0s
     0     0 3032.27627    0   26 3030.00000 3032.27627  0.08%     -    0s
     0     0 3032.27627    0   27 3030.00000 3032.27627  0.08%     -    0s
     0     0 3032.27620    0   27 3030.00000 3032.27620  0.08%     -    0s
     0     0 3032.24093    0   25 3030.00000 3032.24093  0.07%     -    0s
     0     0 3032.23045    0   26 3030.00000 3032.23045  0.07%     -    0s
     0     0 3032.17294    0   25 3030.00000 3032.17294  0.07%     -    0s
     0     0 3032.17294    0   25 3030.00000 3032.17294  0.07%     -    0s
     0     2 3032.17294    0   25 3030.00000 3032.17294  0.07%     -    0s
H   35    16                    3031.0000000 3031.69850  0.02%  10.9    0s

Cutting planes:
  Gomory: 15
  Implied bound: 2
  MIR: 70
  Zero half: 1
  RLT: 14
  Relax-and-lift: 1

Explored 46 nodes (1871 simplex iterations) in 0.40 seconds (0.20 work units)
Thread count was 12 (of 12 available processors)

Solution count 10: 3031 3030 3028 ... 3015

Optimal solution found (tolerance 1.00e-04)
Best objective 3.031000000000e+03, best bound 3.031000000000e+03, gap 0.0000%
